Solutions/MP-61.sol
# Solution for model Master Problem
# Objective value = 5.5816640393715375e+02
theta[1] 0
theta[2] 0
theta[3] 0
theta[4] 0
theta[5] 0
theta[6] 0
theta[7] 0
theta[8] 0
theta[9] 0
theta[10] 0
theta[11] 0
theta[12] 0
theta[13] 0
theta[14] 0
theta[15] 0
theta[16] 0
theta[17] 0
theta[18] 0
theta[19] 0
theta[20] 0
theta[21] 0
theta[22] 0
theta[23] 0
theta[24] 0
theta[25] 0
theta[26] 1.2406947890818866e-01
theta[27] 0
theta[28] 0
theta[29] 6.1786600496277910e-01
theta[30] 0
theta[31] 0
theta[32] 8.9330024813895861e-02
theta[33] 0
theta[34] 6.1786600496277910e-01
theta[35] 0
theta[36] 2.9280397022332505e-01
theta[37] 2.9528535980148884e-01
theta[38] 1.8858560794044668e-01
theta[39] 0
theta[40] 0
theta[41] 0
theta[42] 3.9205955334987586e-01
theta[43] 2.9280397022332505e-01
theta[44] 1.1910669975186108e-01
theta[45] 9.6774193548387122e-02
theta[46] 0
theta[47] 8.4367245657568174e-02
theta[48] 0
theta[49] 1.7369727047146410e-01
theta[50] 4.6898263027295284e-01
theta[51] 1.1910669975186097e-01
theta[52] 0
theta[53] 2.0843672456575685e-01
theta[54] 1.1166253101736964e-01
theta[55] 2.2084367245657571e-01
theta[56] 1.1414392059553358e-01
theta[57] 1.6129032258064518e-01
theta[58] 3.7220843672456545e-02
theta[59] 1.1662531017369723e-01
theta[60] 1.8362282878411917e-01
theta[61] 7.6923076923076927e-02
