LogFiles/MP-61.txt

Gurobi 10.0.1 (mac64[x86]) logging started Tue Apr 18 21:21:03 2023

Set parameter LogFile to value "LogFiles/MP-61.txt"
Gurobi Optimizer version 10.0.1 build v10.0.1rc0 (mac64[x86])

CPU model: Intel(R) Core(TM) i5-5250U CPU @ 1.60GHz
Thread count: 2 physical cores, 4 logical processors, using up to 4 threads

Optimize a model with 25 rows, 61 columns and 198 nonzeros
Coefficient statistics:
  Matrix range     [1e+00, 1e+00]
  Objective range  [2e+01, 2e+02]
  Bounds range     [1e+00, 1e+00]
  RHS range        [1e+00, 1e+00]
Iteration    Objective       Primal Inf.    Dual Inf.      Time
       0    5.3351299e+02   5.160000e+00   0.000000e+00      0s
       2    5.5816640e+02   0.000000e+00   0.000000e+00      0s

Solved in 2 iterations and 0.00 seconds (0.00 work units)
Optimal objective  5.581664039e+02

Gurobi 10.0.1 (mac64[x86]) logging started Wed Apr 19 10:15:27 2023

Set parameter LogFile to value "LogFiles/MP-61.txt"
Gurobi Optimizer version 10.0.1 build v10.0.1rc0 (mac64[x86])

CPU model: Intel(R) Core(TM) i5-5250U CPU @ 1.60GHz
Thread count: 2 physical cores, 4 logical processors, using up to 4 threads

Optimize a model with 25 rows, 61 columns and 198 nonzeros
Coefficient statistics:
  Matrix range     [1e+00, 1e+00]
  Objective range  [2e+01, 2e+02]
  Bounds range     [1e+00, 1e+00]
  RHS range        [1e+00, 1e+00]
Iteration    Objective       Primal Inf.    Dual Inf.      Time
       0    5.3351299e+02   5.160000e+00   0.000000e+00      0s
       2    5.5816640e+02   0.000000e+00   0.000000e+00      0s

Solved in 2 iterations and 0.00 seconds (0.00 work units)
Optimal objective  5.581664039e+02
